/* Objective function */
min: +8 Steaks +4 Potatoes + 2 Kale;

/* Constraints */
Carbohydrates: +5 Steaks +15 Potatoes +6 Kale >= 50;
Protein: +20 Steaks +5 Potatoes + 2.9 Kale >= 40;
Fat: +15 Steaks +2 Potatoes + 0.6 Kale <= 20;
